N = 7;
H = 5;
T = 2;

avail = array3d(1..N, 1..H, 1..T, [2, 5, 1, 8, 3, 10, 5, 10, 9, 4, 6, 5, 0, 9, 9, 4, 1, 2, 9, 2, 0, 2, 4, 4, 3, 5, 4, 7, 7, 7, 4, 2, 7, 0, 6, 4, 10, 1, 9, 6, 2, 3, 2, 0, 4, 4, 3, 0, 9, 8, 8, 10, 5, 6, 10, 0, 3, 6, 4, 10, 2, 1, 5, 9, 6, 5, 9, 10, 1, 0]);

r = array2d(1..H, 1..T, [2, 2, 1, 2, 1, 0, 2, 2, 2, 0]);
